35 99 152 34 194 62 118 32 83 45 
145 2 76 17 200 121 105 
1 165 124 103 154 
106 85 191 94 12 95 177 102 77 114 
120 26 123 21 126 148 113 
158 51 50 66 69 134 149 119 
92 48 112 38 84 138 88 183 40 52 24 
168 187 8 162 170 42 53 192 
132 18 3 5 25 116 
57 19 178 23 22 65 43 141 
87 122 115 16 171 161 146 181 111 60 97 
73 30 128 98 142 159 10 
196 59 20 163 6 189 127 58 47 82 74 108 
143 31 169 101 
147 135 109 182 91 
155 67 150 36 117 86 131 11 130 172 197 
4 15 71 193 186 144 179 190 72 
140 90 13 104 100 136 173 198 
55 7 41 80 133 27 195 49 160 79 14 
157 93 199 28 64 180 61 75 
46 164 54 151 129 33 167 70 107 
63 44 137 68 176 156 139 78 185 81 
188 184 153 166 56 175 9 
89 125 39 29 96 174 110 37 
